Maximize

20.0 x_0 + 10.0 x_1 + 80.0 x_2


Subject To

a0: 0.2 x_0 + 0.0 x_1 + 0.4 x_2 <= 11
a1: 0.4 x_0 + 0.3 x_1 + 0.0 x_2 <= 9
a2: 0.0 x_0 + 0.7 x_1 + 0.0 x_2 <= 7
a3: 0.0 x_0 + 0.0 x_1 + 0.6 x_2 <= 12
a4: 0.4 x_0 + 0.0 x_1 + 0.0 x_2 <= 6





General

 x_0 x_1 x_2



End
